webassembly/ejemplos_dzn/15/folder15_json_36.dzn
TERM = { '.', 's(2)', 's(5)', 's(4)', 'local_0', 'local_1', 's(8)', 's(6)', 's(1)', 's(0)', 's(7)', 's(3)', 'in_0'};
null = '.';
s = 15;
n = 12;
ndeps = 5;
max_registers_sz = 5;
NR = 2;
registers = [|'local_0', 's(8)', |'local_1', 's(8)'|];
dependencies = [|'i32.load_0', 'call[function_index(0)]_8', |'call[function_index(0)]_8', 'i32.load16_s_11', |'i32.load8_s_1', 'call[function_index(0)]_8', |'i32.load8_u_2', 'call[function_index(0)]_8', |'i32.load_5', 'call[function_index(0)]_8'|];
GET_ENUM = { GET1, GET2, GET3, GET4, GET5, GET6, GET7};
SET_ENUM = { SET1, SET2, SET3, SET4, SET5, SET6, SET7};
TEE_ENUM = { TEE1, TEE2, TEE3, TEE4, TEE5, TEE6, TEE7};
N = 7;
OP = { 'i32.add_0', 'call[function_index(0)]_8', 'i32.load_0', 'i32.load8_s_1', 'i32.load8_u_2', 'i32.load_5', 'i32.load16_s_11' };
in_ops = [2, 1, 1, 1, 1, 1, 1 ];
out_ops = [1, 3, 1, 1, 1, 1, 1 ];
in1 = ['s(6)', 'local_1', 'in_0', 's(0)', 's(1)', 'local_0', 'local_1' ];
in2 = ['s(5)', '.', '.', '.', '.', '.', '.' ];
in3 = ['.', '.', '.', '.', '.', '.', '.' ];
out1 = ['s(7)', 's(6)', 's(0)', 's(1)', 's(2)', 's(3)', 's(8)' ];
out2 = ['.', 's(5)', '.', '.', '.', '.', '.' ];
out3 = ['.', 's(4)', '.', '.', '.', '.', '.' ];
comm = [true, false, false, false, false, false, false ];
gas = [1, 1, 1, 1, 1, 1, 1 ];
sz = [1, 1, 1, 1, 1, 1, 1 ];
stor = [false, true, false, false, false, false, false ];
lb = [ 1, 1, 1, 1, 1, 1, 1 ];
ub = [ 15, 15, 15, 15, 15, 15, 15 ];
startstack = [ 'in_0', null, null, null, null, null, null, null, null, null, null, null ];
endstack = [ 's(8)', 's(8)', 's(7)', 's(4)', 's(3)', 'local_0', 's(2)', null, null, null, null, null ];
