webassembly/ejemplos_results/folder15_json_36.txt
=====UNSATISFIABLE=====
% time elapsed: 0.41 s
